============================[ Problem Statistics ]=============================|                                                                             ||  Number of variables:          4242                                         ||  Number of clauses:           10258                                         ||  Parse time:                   0.64 s                                       ||                                                                             |============================[ Search Statistics ]==============================| Conflicts |          ORIGINAL         |          LEARNT          | Progress ||           |    Vars  Clauses Literals |    Limit  Clauses Lit/Cl |          |===============================================================================|       100 |    1591     6463  1030034 |     2369      100     53 | 62.501 % ||       250 |    1591     6463  1030034 |     2606      250     75 | 62.495 % |===============================================================================restarts              : 3conflicts             : 353            (362 /sec)decisions             : 617            (0.00 % random) (632 /sec)propagations          : 11960          (12254 /sec)conflict literals     : 28699          (94.63 % deleted)CPU time              : 0.976 sSATISFIABLE